200
300
208
208
207
207
207
206
206
205
204
203
202
201
201
199
199
199
197
197
197
196
196
196
196
195
195
194
193
193
192
190
190
190
189
188
188
186
185
185
184
183
183
183
181
181
179
178
176
172
171
170
170
168
167
167
167
165
165
164
163
163
162
160
160
158
157
157
156
155
155
155
154
154
154
154
150
150
150
149
147
146
146
143
142
142
142
141
140
139
139
138
137
136
136
136
133
133
132
132
130
130
130
129
128
125
125
124
124
124
119
119
117
117
116
115
115
113
112
112
112
112
111
111
111
110
110
109
108
106
105
103
101
101
99
99
99
97
97
95
93
93
92
92
90
90
89
88
86
83
80
79
77
76
76
76
75
75
73
69
68
68
68
66
65
65
62
62
61
60
58
58
57
55
55
53
52
49
49
49
48
48
47
46
43
42
42
40
40
40
39
38
37
35
34
34
33
33
32
31
31
30
